myproject/instances/20nodes/rnd33_20.tsp
NAME : rnd33_20.tsp
TYPE : TSP
DIMENSION : 20
EDGE_WEIGHT_TYPE : EUC_2D
NODE_COORD_SECTION
1 933 72
2 912 800
3 995 481
4 711 849
5 945 424
6 674 676
7 463 715
8 141 759
9 400 490
10 255 983
11 575 947
12 29 960
13 72 725
14 141 265
15 728 47
16 672 534
17 254 728
18 991 596
19 116 502
20 721 962
