myproject/instances/20nodes/rnd33_20.opt.tour
NAME : rnd33_20.tsp.tsp.optbc.tour
TYPE : TOUR
DIMENSION : 20
TOUR_SECTION
1
12
9
4
20
5
18
15
6
13
17
19
11
10
2
8
7
16
14
3
-1